8293
41, 3, 17, 42, 7, 2, 30, 29, 16, 50, 20, 23, 21, 31, 18, 22, 1, 36, 39, 37, 40, 38, 15, 43, 33, 51, 11, 52, 14, 13, 47, 27, 26, 28, 12, 25, 4, 6, 5, 48, 24, 46, 44, 34, 35, 49, 32, 45, 19, 10, 9, 8
